NAME: Random ATSP Instance
TYPE: ATSP
DIMENSION: 13
EDGE_WEIGHT_TYPE: EXPLICIT
EDGE_WEIGHT_FORMAT: FULL_MATRIX
EDGE_WEIGHT_SECTION
9999 18 18 3 20 20 19 5 20 12 8 8 13
10 9999 17 11 6 2 13 8 5 19 12 19 19
8 9 9999 20 7 19 5 20 7 12 10 3 18
19 6 17 9999 19 6 14 9 7 6 6 17 12
16 18 18 15 9999 1 15 4 5 15 1 14 6
9 4 7 13 8 9999 17 13 1 7 16 16 3
5 11 13 12 4 6 9999 11 1 13 6 15 6
2 4 19 12 15 9 7 9999 13 13 6 6 9
15 2 14 7 7 1 3 6 9999 6 20 5 14
17 3 12 6 18 6 13 10 20 9999 7 3 12
20 7 13 17 10 8 1 1 12 17 9999 7 11
16 10 16 20 13 7 17 19 17 1 20 9999 9
3 8 16 12 4 12 20 3 1 18 13 2 9999
EOF
